NAME : XML100_3353_03
DIMENSION : 101
NB_CLUSTERS : 3
CLUSTERING_ALG : KMeans
CLUSTERING_PARAMS : k(2)
CLUSTERS
1 0
2 1 2 3 4 5 6 7 8 9 10 11 13 14 15 16 17 18 19 20 21 22 23 24 26 27 28 29 31 33 36 37 38 39 41 43 44 45 46 47 48 49 53 54 56 57 58 59 61 62 63 64 65 66 70 73 75 76 78 79 81 82 83 85 86 88 89 91 92 93 94 95 96 97 98 99 100
3 12 25 30 32 34 35 40 42 50 51 52 55 60 67 68 69 71 72 74 77 80 84 87 90
EOF